assets/logs/10_12x12_clingo/10_12x12_clingo.solution.log

-------------------------------------------------
|  0| 70|131| 50| 64|121|103| 54| 60|118|  0|114|
-------------------------------------------------
|133| 48| 66|  0|105| 52| 62|119|  0|112| 58|120|
-------------------------------------------------
| 68|  0| 72|129|123|109|  0|101| 56| 81|116|  0|
-------------------------------------------------
| 46|  0| 18|107|  6|127|117|111|110| 99|122| 79|
-------------------------------------------------
| 20| 74| 44|125| 84|106|  0| 97|115| 77| 83|  1|
-------------------------------------------------
| 42| 16| 82|  8|  0|  4|113|108|  5|124| 93| 75|
-------------------------------------------------
| 76| 22| 40| 86|104| 10|  7|  2| 95| 89|  3| 85|
-------------------------------------------------
| 38| 15| 14| 80|  9| 88|102| 96|126| 63| 73| 91|
-------------------------------------------------
| 24| 78| 11| 17| 12| 94|128| 90|100| 57| 87| 61|
-------------------------------------------------
| 13| 36| 25| 47| 30| 51| 98| 43|130| 39| 65| 71|
-------------------------------------------------
| 23| 26| 32| 29| 19| 45| 92| 33| 55| 69| 59| 37|
-------------------------------------------------
| 34| 27| 21| 28| 49| 31| 53|132| 41| 35|  0| 67|
-------------------------------------------------

| n = 12 | k = 7 | coverage = 139, 96.52777777777777%
 Time 300.002
 Name 10_12x12_clingo

