assets/logs/10_12x12_clingo/10_12x12_clingo.log
clingo version 5.4.0
Reading from ...s/logs/10_12x12_clingo/knights_tour.lp ...
Solving...
Answer: 1
occ(1,2,9) occ(1,3,7) occ(1,3,2) occ(1,4,2) occ(1,5,7) occ(1,6,5) occ(1,2,4) occ(2,5,12) occ(3,7,8) coverage(6)
Optimization: -6
Answer: 2
occ(1,2,9) occ(1,3,7) occ(1,3,2) occ(1,4,2) occ(1,5,7) occ(1,6,5) occ(1,2,4) occ(2,5,12) occ(3,7,8) coverage(96) occ(10,1,12) occ(31,1,8) occ(46,1,10) occ(69,1,9) occ(81,1,5) occ(87,1,2) occ(8,2,10) occ(13,2,2) occ(29,2,6) occ(44,2,8) occ(48,2,12) occ(67,2,7) occ(71,2,11) occ(83,2,3) occ(91,2,5) occ(6,3,12) occ(7,3,8) occ(11,3,4) occ(12,3,11) occ(33,3,9) occ(65,3,5) occ(79,3,6) occ(85,3,1) occ(89,3,3) occ(4,4,10) occ(9,4,6) occ(14,4,9) occ(15,4,1) occ(19,4,3) occ(27,4,5) occ(42,4,7) occ(50,4,11) occ(73,4,12) occ(77,4,8) occ(93,4,4) occ(5,5,9) occ(21,5,1) occ(35,5,8) occ(38,5,4) occ(63,5,6) occ(75,5,10) occ(109,5,3) occ(113,5,5) occ(16,6,10) occ(17,6,2) occ(25,6,4) occ(39,6,9) occ(40,6,6) occ(52,6,12) occ(61,6,8) occ(95,6,3) occ(107,6,1) occ(115,6,7) occ(127,6,11) occ(23,7,2) occ(36,7,5) occ(37,7,7) occ(54,7,10) occ(59,7,6) occ(94,7,12) occ(97,7,1) occ(105,7,3) occ(111,7,4) occ(125,7,9) occ(18,8,9) occ(32,8,2) occ(41,8,10) occ(56,8,12) occ(70,8,5) occ(74,8,7) occ(78,8,11) occ(99,8,3) occ(103,8,1) occ(117,8,8) occ(20,9,7) occ(34,9,4) occ(57,9,5) occ(58,9,10) occ(62,9,6) occ(68,9,3) occ(76,9,9) occ(92,9,11) occ(123,9,8) occ(30,10,1) occ(43,10,9) occ(51,10,5) occ(60,10,8) occ(64,10,4) occ(72,10,6) occ(80,10,10) occ(86,10,11) occ(101,10,2) occ(119,10,7) occ(22,11,8) occ(26,11,4) occ(45,11,7) occ(49,11,3) occ(55,11,6) occ(66,11,2) occ(82,11,12) occ(90,11,10) occ(121,11,9) occ(24,12,6) occ(28,12,2) occ(47,12,5) occ(53,12,4) occ(84,12,10) occ(88,12,12)
Optimization: -96
Answer: 3
occ(1,2,9) occ(1,3,7) occ(1,3,2) occ(1,4,2) occ(1,5,7) occ(1,6,5) occ(1,2,4) occ(2,5,12) occ(3,7,8) coverage(98) occ(10,1,12) occ(31,1,8) occ(46,1,10) occ(69,1,9) occ(81,1,5) occ(87,1,2) occ(8,2,10) occ(13,2,2) occ(29,2,6) occ(44,2,8) occ(48,2,12) occ(67,2,7) occ(71,2,11) occ(83,2,3) occ(91,2,5) occ(6,3,12) occ(7,3,8) occ(11,3,4) occ(12,3,11) occ(33,3,9) occ(65,3,5) occ(79,3,6) occ(85,3,1) occ(89,3,3) occ(4,4,10) occ(9,4,6) occ(14,4,9) occ(15,4,1) occ(19,4,3) occ(27,4,5) occ(42,4,7) occ(50,4,11) occ(73,4,12) occ(77,4,8) occ(93,4,4) occ(5,5,9) occ(21,5,1) occ(35,5,8) occ(38,5,4) occ(63,5,6) occ(75,5,10) occ(96,5,11) occ(109,5,3) occ(113,5,5) occ(16,6,10) occ(17,6,2) occ(25,6,4) occ(39,6,9) occ(40,6,6) occ(52,6,12) occ(61,6,8) occ(95,6,3) occ(107,6,1) occ(115,6,7) occ(127,6,11) occ(23,7,2) occ(36,7,5) occ(37,7,7) occ(54,7,10) occ(59,7,6) occ(94,7,12) occ(97,7,1) occ(105,7,3) occ(111,7,4) occ(125,7,9) occ(18,8,9) occ(32,8,2) occ(41,8,10) occ(56,8,12) occ(70,8,5) occ(74,8,7) occ(78,8,11) occ(99,8,3) occ(103,8,1) occ(117,8,8) occ(20,9,7) occ(34,9,4) occ(57,9,5) occ(58,9,10) occ(62,9,6) occ(68,9,3) occ(76,9,9) occ(92,9,11) occ(123,9,8) occ(30,10,1) occ(43,10,9) occ(51,10,5) occ(60,10,8) occ(64,10,4) occ(72,10,6) occ(80,10,10) occ(86,10,11) occ(101,10,2) occ(119,10,7) occ(22,11,8) occ(26,11,4) occ(45,11,7) occ(49,11,3) occ(55,11,6) occ(66,11,2) occ(82,11,12) occ(90,11,10) occ(121,11,9) occ(24,12,6) occ(28,12,2) occ(47,12,5) occ(53,12,4) occ(84,12,10) occ(88,12,12)
Optimization: -98
Answer: 4
occ(1,2,9) occ(1,3,7) occ(1,3,2) occ(1,4,2) occ(1,5,7) occ(1,6,5) occ(1,2,4) occ(2,5,12) occ(3,7,8) coverage(100) occ(10,1,12) occ(31,1,8) occ(46,1,10) occ(69,1,9) occ(81,1,5) occ(87,1,2) occ(8,2,10) occ(13,2,2) occ(29,2,6) occ(44,2,8) occ(48,2,12) occ(67,2,7) occ(71,2,11) occ(83,2,3) occ(91,2,5) occ(6,3,12) occ(7,3,8) occ(11,3,4) occ(12,3,11) occ(33,3,9) occ(65,3,5) occ(79,3,6) occ(85,3,1) occ(89,3,3) occ(98,3,10) occ(4,4,10) occ(9,4,6) occ(14,4,9) occ(15,4,1) occ(19,4,3) occ(27,4,5) occ(42,4,7) occ(50,4,11) occ(73,4,12) occ(77,4,8) occ(93,4,4) occ(5,5,9) occ(21,5,1) occ(35,5,8) occ(38,5,4) occ(63,5,6) occ(75,5,10) occ(96,5,11) occ(109,5,3) occ(113,5,5) occ(16,6,10) occ(17,6,2) occ(25,6,4) occ(39,6,9) occ(40,6,6) occ(52,6,12) occ(61,6,8) occ(95,6,3) occ(107,6,1) occ(115,6,7) occ(127,6,11) occ(23,7,2) occ(36,7,5) occ(37,7,7) occ(54,7,10) occ(59,7,6) occ(94,7,12) occ(97,7,1) occ(105,7,3) occ(111,7,4) occ(125,7,9) occ(18,8,9) occ(32,8,2) occ(41,8,10) occ(56,8,12) occ(70,8,5) occ(74,8,7) occ(78,8,11) occ(99,8,3) occ(103,8,1) occ(117,8,8) occ(20,9,7) occ(34,9,4) occ(57,9,5) occ(58,9,10) occ(62,9,6) occ(68,9,3) occ(76,9,9) occ(92,9,11) occ(123,9,8) occ(30,10,1) occ(43,10,9) occ(51,10,5) occ(60,10,8) occ(64,10,4) occ(72,10,6) occ(80,10,10) occ(86,10,11) occ(101,10,2) occ(119,10,7) occ(22,11,8) occ(26,11,4) occ(45,11,7) occ(49,11,3) occ(55,11,6) occ(66,11,2) occ(82,11,12) occ(90,11,10) occ(121,11,9) occ(24,12,6) occ(28,12,2) occ(47,12,5) occ(53,12,4) occ(84,12,10) occ(88,12,12)
Optimization: -100
Answer: 5
occ(1,2,9) occ(1,3,7) occ(1,3,2) occ(1,4,2) occ(1,5,7) occ(1,6,5) occ(1,2,4) occ(2,5,12) occ(3,7,8) coverage(102) occ(10,1,12) occ(31,1,8) occ(46,1,10) occ(69,1,9) occ(81,1,5) occ(87,1,2) occ(100,1,11) occ(8,2,10) occ(13,2,2) occ(29,2,6) occ(44,2,8) occ(48,2,12) occ(67,2,7) occ(71,2,11) occ(83,2,3) occ(91,2,5) occ(6,3,12) occ(7,3,8) occ(11,3,4) occ(12,3,11) occ(33,3,9) occ(65,3,5) occ(79,3,6) occ(85,3,1) occ(89,3,3) occ(98,3,10) occ(4,4,10) occ(9,4,6) occ(14,4,9) occ(15,4,1) occ(19,4,3) occ(27,4,5) occ(42,4,7) occ(50,4,11) occ(73,4,12) occ(77,4,8) occ(93,4,4) occ(5,5,9) occ(21,5,1) occ(35,5,8) occ(38,5,4) occ(63,5,6) occ(75,5,10) occ(96,5,11) occ(109,5,3) occ(113,5,5) occ(16,6,10) occ(17,6,2) occ(25,6,4) occ(39,6,9) occ(40,6,6) occ(52,6,12) occ(61,6,8) occ(95,6,3) occ(107,6,1) occ(115,6,7) occ(127,6,11) occ(23,7,2) occ(36,7,5) occ(37,7,7) occ(54,7,10) occ(59,7,6) occ(94,7,12) occ(97,7,1) occ(105,7,3) occ(111,7,4) occ(125,7,9) occ(18,8,9) occ(32,8,2) occ(41,8,10) occ(56,8,12) occ(70,8,5) occ(74,8,7) occ(78,8,11) occ(99,8,3) occ(103,8,1) occ(117,8,8) occ(20,9,7) occ(34,9,4) occ(57,9,5) occ(58,9,10) occ(62,9,6) occ(68,9,3) occ(76,9,9) occ(92,9,11) occ(123,9,8) occ(30,10,1) occ(43,10,9) occ(51,10,5) occ(60,10,8) occ(64,10,4) occ(72,10,6) occ(80,10,10) occ(86,10,11) occ(101,10,2) occ(119,10,7) occ(22,11,8) occ(26,11,4) occ(45,11,7) occ(49,11,3) occ(55,11,6) occ(66,11,2) occ(82,11,12) occ(90,11,10) occ(121,11,9) occ(24,12,6) occ(28,12,2) occ(47,12,5) occ(53,12,4) occ(84,12,10) occ(88,12,12)
Optimization: -102
Answer: 6
occ(1,2,9) occ(1,3,7) occ(1,3,2) occ(1,4,2) occ(1,5,7) occ(1,6,5) occ(1,2,4) occ(2,5,12) occ(3,7,8) coverage(116) occ(20,1,9) occ(38,1,10) occ(53,1,5) occ(94,1,6) occ(100,1,7) occ(110,1,8) occ(114,1,12) occ(119,1,2) occ(18,2,11) occ(24,2,12) occ(34,2,7) occ(51,2,3) occ(96,2,8) occ(102,2,5) occ(108,2,6) occ(112,2,10) occ(22,3,10) occ(36,3,9) occ(40,3,11) occ(55,3,4) occ(63,3,8) occ(92,3,5) occ(98,3,6) occ(104,3,3) occ(117,3,1) occ(16,4,12) occ(26,4,11) occ(32,4,8) occ(42,4,9) occ(49,4,4) occ(56,4,6) occ(65,4,10) occ(91,4,1) occ(106,4,5) occ(30,5,10) occ(44,5,11) occ(54,5,8) occ(57,5,5) occ(58,5,4) occ(61,5,9) occ(89,5,3) occ(90,5,6) occ(115,5,2) occ(5,6,6) occ(14,6,11) occ(25,6,8) occ(28,6,12) occ(47,6,3) occ(48,6,10) occ(59,6,7) occ(62,6,1) occ(67,6,9) occ(93,6,2) occ(113,6,4) occ(4,7,11) occ(45,7,5) occ(46,7,12) occ(52,7,9) occ(60,7,3) occ(87,7,4) occ(88,7,7) occ(107,7,2) occ(111,7,6) occ(7,8,5) occ(12,8,12) occ(23,8,7) occ(27,8,9) occ(50,8,11) occ(64,8,2) occ(69,8,8) occ(85,8,6) occ(95,8,1) occ(99,8,3) occ(109,8,4) occ(6,9,12) occ(10,9,10) occ(11,9,2) occ(29,9,7) occ(43,9,4) occ(68,9,5) occ(81,9,9) occ(82,9,8) occ(86,9,6) occ(101,9,1) occ(105,9,3) occ(9,10,4) occ(21,10,8) occ(31,10,5) occ(35,10,1) occ(41,10,6) occ(66,10,3) occ(71,10,9) occ(77,10,10) occ(78,10,11) occ(83,10,7) occ(97,10,2) occ(8,11,11) occ(13,11,1) occ(17,11,5) occ(33,11,3) occ(39,11,4) occ(70,11,6) occ(74,11,10) occ(75,11,12) occ(79,11,8) occ(80,11,9) occ(84,11,7) occ(103,11,2) occ(15,12,3) occ(19,12,7) occ(37,12,2) occ(72,12,8) occ(73,12,10) occ(76,12,12)
Optimization: -116
Answer: 7
occ(1,2,9) occ(1,3,7) occ(1,3,2) occ(1,4,2) occ(1,5,7) occ(1,6,5) occ(1,2,4) occ(2,5,12) occ(3,7,8) coverage(118) occ(20,1,9) occ(38,1,10) occ(53,1,5) occ(94,1,6) occ(100,1,7) occ(110,1,8) occ(116,1,11) occ(119,1,2) occ(18,2,11) occ(24,2,12) occ(34,2,7) occ(51,2,3) occ(96,2,8) occ(102,2,5) occ(108,2,6) occ(112,2,10) occ(22,3,10) occ(36,3,9) occ(40,3,11) occ(55,3,4) occ(63,3,8) occ(92,3,5) occ(98,3,6) occ(104,3,3) occ(114,3,12) occ(117,3,1) occ(16,4,12) occ(26,4,11) occ(32,4,8) occ(42,4,9) occ(49,4,4) occ(56,4,6) occ(65,4,10) occ(91,4,1) occ(106,4,5) occ(30,5,10) occ(44,5,11) occ(54,5,8) occ(57,5,5) occ(58,5,4) occ(61,5,9) occ(89,5,3) occ(90,5,6) occ(115,5,2) occ(5,6,6) occ(14,6,11) occ(25,6,8) occ(28,6,12) occ(47,6,3) occ(48,6,10) occ(59,6,7) occ(62,6,1) occ(67,6,9) occ(93,6,2) occ(113,6,4) occ(4,7,11) occ(45,7,5) occ(46,7,12) occ(52,7,9) occ(60,7,3) occ(87,7,4) occ(88,7,7) occ(107,7,2) occ(111,7,6) occ(7,8,5) occ(12,8,12) occ(23,8,7) occ(27,8,9) occ(50,8,11) occ(64,8,2) occ(69,8,8) occ(85,8,6) occ(95,8,1) occ(99,8,3) occ(109,8,4) occ(6,9,12) occ(10,9,10) occ(11,9,2) occ(29,9,7) occ(43,9,4) occ(68,9,5) occ(81,9,9) occ(82,9,8) occ(86,9,6) occ(101,9,1) occ(105,9,3) occ(9,10,4) occ(21,10,8) occ(31,10,5) occ(35,10,1) occ(41,10,6) occ(66,10,3) occ(71,10,9) occ(77,10,10) occ(78,10,11) occ(83,10,7) occ(97,10,2) occ(8,11,11) occ(13,11,1) occ(17,11,5) occ(33,11,3) occ(39,11,4) occ(70,11,6) occ(74,11,10) occ(75,11,12) occ(79,11,8) occ(80,11,9) occ(84,11,7) occ(103,11,2) occ(15,12,3) occ(19,12,7) occ(37,12,2) occ(72,12,8) occ(73,12,10) occ(76,12,12)
Optimization: -118
Answer: 8
occ(1,2,9) occ(1,3,7) occ(1,3,2) occ(1,4,2) occ(1,5,7) occ(1,6,5) occ(1,2,4) occ(2,5,12) occ(3,7,8) coverage(119) occ(20,1,9) occ(38,1,10) occ(53,1,5) occ(94,1,6) occ(100,1,7) occ(110,1,8) occ(18,2,11) occ(24,2,12) occ(34,2,7) occ(51,2,3) occ(96,2,8) occ(102,2,5) occ(108,2,6) occ(112,2,10) occ(22,3,10) occ(36,3,9) occ(40,3,11) occ(55,3,4) occ(92,3,5) occ(98,3,6) occ(104,3,3) occ(114,3,12) occ(117,3,1) occ(118,3,8) occ(16,4,12) occ(26,4,11) occ(32,4,8) occ(42,4,9) occ(49,4,4) occ(56,4,6) occ(91,4,1) occ(106,4,5) occ(111,4,3) occ(116,4,10) occ(30,5,10) occ(44,5,11) occ(54,5,8) occ(57,5,5) occ(58,5,4) occ(89,5,3) occ(90,5,6) occ(109,5,1) occ(115,5,2) occ(5,6,6) occ(14,6,11) occ(25,6,8) occ(28,6,12) occ(47,6,3) occ(48,6,10) occ(59,6,7) occ(62,6,1) occ(75,6,9) occ(93,6,2) occ(113,6,4) occ(4,7,11) occ(45,7,5) occ(46,7,12) occ(52,7,9) occ(60,7,3) occ(67,7,6) occ(79,7,10) occ(87,7,4) occ(88,7,7) occ(107,7,2) occ(7,8,5) occ(12,8,12) occ(23,8,7) occ(27,8,9) occ(50,8,11) occ(61,8,6) occ(64,8,2) occ(65,8,4) occ(73,8,10) occ(77,8,8) occ(95,8,1) occ(99,8,3) occ(6,9,12) occ(10,9,10) occ(11,9,2) occ(29,9,11) occ(43,9,4) occ(69,9,7) occ(81,9,9) occ(82,9,8) occ(85,9,5) occ(86,9,6) occ(101,9,1) occ(105,9,3) occ(9,10,4) occ(21,10,8) occ(41,10,6) occ(63,10,5) occ(66,10,3) occ(71,10,9) occ(78,10,11) occ(83,10,7) occ(97,10,2) occ(8,11,11) occ(13,11,1) occ(17,11,5) occ(31,11,12) occ(35,11,8) occ(39,11,4) occ(70,11,6) occ(74,11,10) occ(80,11,9) occ(84,11,7) occ(103,11,2) occ(15,12,3) occ(19,12,7) occ(33,12,10) occ(37,12,6) occ(68,12,4) occ(72,12,8) occ(76,12,12)
Optimization: -119
Answer: 9
occ(1,2,9) occ(1,3,7) occ(1,3,2) occ(1,4,2) occ(1,5,7) occ(1,6,5) occ(1,2,4) occ(2,5,12) occ(3,7,8) coverage(120) occ(20,1,9) occ(38,1,10) occ(53,1,5) occ(94,1,6) occ(100,1,7) occ(110,1,8) occ(119,1,2) occ(18,2,11) occ(24,2,12) occ(34,2,7) occ(51,2,3) occ(96,2,8) occ(102,2,5) occ(108,2,6) occ(112,2,10) occ(22,3,10) occ(36,3,9) occ(40,3,11) occ(55,3,4) occ(92,3,5) occ(98,3,6) occ(104,3,3) occ(114,3,12) occ(117,3,1) occ(118,3,8) occ(16,4,12) occ(26,4,11) occ(32,4,8) occ(42,4,9) occ(49,4,4) occ(56,4,6) occ(91,4,1) occ(106,4,5) occ(111,4,3) occ(116,4,10) occ(30,5,10) occ(44,5,11) occ(54,5,8) occ(57,5,5) occ(58,5,4) occ(89,5,3) occ(90,5,6) occ(109,5,1) occ(115,5,2) occ(5,6,6) occ(14,6,11) occ(25,6,8) occ(28,6,12) occ(47,6,3) occ(48,6,10) occ(59,6,7) occ(62,6,1) occ(75,6,9) occ(93,6,2) occ(113,6,4) occ(4,7,11) occ(45,7,5) occ(46,7,12) occ(52,7,9) occ(60,7,3) occ(67,7,6) occ(79,7,10) occ(87,7,4) occ(88,7,7) occ(107,7,2) occ(7,8,5) occ(12,8,12) occ(23,8,7) occ(27,8,9) occ(50,8,11) occ(61,8,6) occ(64,8,2) occ(65,8,4) occ(73,8,10) occ(77,8,8) occ(95,8,1) occ(99,8,3) occ(6,9,12) occ(10,9,10) occ(11,9,2) occ(29,9,11) occ(43,9,4) occ(69,9,7) occ(81,9,9) occ(82,9,8) occ(85,9,5) occ(86,9,6) occ(101,9,1) occ(105,9,3) occ(9,10,4) occ(21,10,8) occ(41,10,6) occ(63,10,5) occ(66,10,3) occ(71,10,9) occ(78,10,11) occ(83,10,7) occ(97,10,2) occ(8,11,11) occ(13,11,1) occ(17,11,5) occ(31,11,12) occ(35,11,8) occ(39,11,4) occ(70,11,6) occ(74,11,10) occ(80,11,9) occ(84,11,7) occ(103,11,2) occ(15,12,3) occ(19,12,7) occ(33,12,10) occ(37,12,6) occ(68,12,4) occ(72,12,8) occ(76,12,12)
Optimization: -120
Answer: 10
occ(1,2,9) occ(1,3,7) occ(1,3,2) occ(1,4,2) occ(1,5,7) occ(1,6,5) occ(1,2,4) occ(2,5,12) occ(3,7,8) coverage(123) occ(46,1,10) occ(52,1,9) occ(56,1,7) occ(95,1,6) occ(99,1,4) occ(108,1,3) occ(111,1,8) occ(116,1,5) occ(48,2,12) occ(93,2,8) occ(101,2,2) occ(106,2,1) occ(109,2,6) occ(110,2,5) occ(113,2,10) occ(114,2,7) occ(118,2,3) occ(119,2,11) occ(44,3,11) occ(50,3,10) occ(54,3,8) occ(58,3,6) occ(97,3,5) occ(104,3,3) occ(107,3,4) occ(117,3,9) occ(120,3,1) occ(4,4,10) occ(7,4,5) occ(11,4,3) occ(42,4,9) occ(57,4,4) occ(91,4,7) occ(103,4,1) occ(112,4,6) occ(115,4,11) occ(121,4,12) occ(13,5,1) occ(22,5,8) occ(30,5,10) occ(59,5,6) occ(60,5,5) occ(85,5,11) occ(89,5,9) occ(102,5,4) occ(105,5,3) occ(122,5,2) occ(5,6,6) occ(6,6,9) occ(9,6,4) occ(21,6,2) occ(24,6,10) occ(28,6,12) occ(40,6,8) occ(55,6,3) occ(62,6,7) occ(70,6,11) occ(15,7,2) occ(20,7,9) occ(32,7,11) occ(38,7,6) occ(39,7,4) occ(61,7,7) occ(65,7,3) occ(83,7,12) occ(87,7,10) occ(100,7,5) occ(124,7,1) occ(8,8,8) occ(19,8,1) occ(23,8,3) occ(26,8,11) occ(34,8,9) occ(37,8,2) occ(53,8,4) occ(63,8,5) occ(64,8,6) occ(68,8,10) occ(72,8,12) occ(98,8,7) occ(10,9,6) occ(17,9,3) occ(18,9,10) occ(36,9,7) occ(41,9,5) occ(49,9,1) occ(66,9,8) occ(67,9,4) occ(81,9,11) occ(84,9,9) occ(126,9,2) occ(25,10,2) occ(29,10,4) occ(35,10,1) occ(51,10,3) occ(71,10,7) occ(74,10,11) occ(77,10,10) occ(78,10,9) occ(92,10,6) occ(96,10,8) occ(12,11,7) occ(16,11,11) occ(33,11,3) occ(43,11,6) occ(47,11,2) occ(69,11,5) occ(73,11,9) occ(79,11,12) occ(82,11,10) occ(86,11,8) occ(90,11,4) occ(128,11,1) occ(14,12,9) occ(27,12,3) occ(31,12,5) occ(45,12,4) occ(75,12,11) occ(76,12,10) occ(80,12,8) occ(88,12,6) occ(94,12,7)
Optimization: -123
Answer: 11
occ(1,2,9) occ(1,3,7) occ(1,3,2) occ(1,4,2) occ(1,5,7) occ(1,6,5) occ(1,2,4) occ(2,5,12) occ(3,7,8) coverage(126) occ(10,1,8) occ(19,1,4) occ(25,1,3) occ(29,1,7) occ(35,1,10) occ(38,1,12) occ(44,1,9) occ(48,1,5) occ(124,1,11) occ(6,2,11) occ(12,2,6) occ(17,2,2) occ(23,2,1) occ(27,2,5) occ(33,2,8) occ(37,2,12) occ(40,2,10) occ(46,2,7) occ(50,2,3) occ(8,3,9) occ(21,3,3) occ(31,3,6) occ(36,3,11) occ(39,3,10) occ(42,3,8) occ(52,3,1) occ(73,3,5) occ(86,3,4) occ(122,3,12) occ(4,4,10) occ(14,4,7) occ(15,4,1) occ(34,4,9) occ(41,4,8) occ(75,4,3) occ(88,4,6) occ(7,5,4) occ(16,5,9) occ(54,5,2) occ(60,5,5) occ(71,5,6) occ(77,5,1) occ(84,5,3) occ(90,5,8) occ(106,5,10) occ(120,5,11) occ(5,6,6) occ(13,6,2) occ(18,6,11) occ(32,6,8) occ(43,6,9) occ(47,6,7) occ(56,6,4) occ(62,6,3) occ(82,6,1) occ(92,6,10) occ(104,6,12) occ(9,7,3) occ(49,7,5) occ(58,7,6) occ(64,7,1) occ(69,7,7) occ(78,7,4) occ(79,7,2) occ(102,7,10) occ(108,7,9) occ(112,7,11) occ(118,7,12) occ(11,8,1) occ(20,8,10) occ(30,8,7) occ(45,8,8) occ(51,8,3) occ(63,8,5) occ(80,8,2) occ(94,8,11) occ(100,8,12) occ(105,8,6) occ(114,8,9) occ(22,9,8) occ(28,9,5) occ(61,9,7) occ(66,9,2) occ(67,9,6) occ(76,9,3) occ(81,9,1) occ(95,9,12) occ(96,9,9) occ(107,9,4) occ(110,9,10) occ(116,9,11) occ(24,10,6) occ(53,10,2) occ(59,10,5) occ(65,10,4) occ(70,10,3) occ(74,10,1) occ(91,10,9) occ(97,10,10) occ(98,10,11) occ(103,10,7) occ(117,10,12) occ(121,10,8) occ(26,11,4) occ(57,11,3) occ(68,11,1) occ(83,11,2) occ(87,11,6) occ(93,11,11) occ(99,11,8) occ(109,11,5) occ(113,11,9) occ(119,11,10) occ(125,11,7) occ(55,12,1) occ(72,12,2) occ(85,12,4) occ(89,12,8) occ(101,12,6) occ(111,12,7) occ(115,12,11) occ(123,12,9)
Optimization: -126
Answer: 12
occ(1,2,9) occ(1,3,7) occ(1,3,2) occ(1,4,2) occ(1,5,7) occ(1,6,5) occ(1,2,4) occ(2,5,12) occ(3,7,8) coverage(127) occ(6,1,12) occ(20,1,5) occ(88,1,9) occ(94,1,8) occ(98,1,4) occ(108,1,3) occ(112,1,7) occ(120,1,11) occ(126,1,10) occ(8,2,10) occ(82,2,3) occ(86,2,7) occ(90,2,11) occ(96,2,6) occ(100,2,2) occ(106,2,1) occ(110,2,5) occ(124,2,12) occ(4,3,11) occ(18,3,6) occ(22,3,4) occ(80,3,1) occ(84,3,5) occ(92,3,9) occ(104,3,3) occ(114,3,8) occ(118,3,12) occ(122,3,10) occ(7,4,11) occ(10,4,9) occ(16,4,8) occ(68,4,6) occ(78,4,3) occ(102,4,1) occ(115,4,7) occ(116,4,10) occ(119,4,5) occ(125,4,4) occ(9,5,9) occ(12,5,11) occ(24,5,3) occ(51,5,8) occ(55,5,10) occ(70,5,4) occ(113,5,5) occ(123,5,2) occ(5,6,10) occ(11,6,11) occ(14,6,9) occ(26,6,1) occ(57,6,8) occ(66,6,7) occ(76,6,2) occ(111,6,3) occ(117,6,6) occ(121,6,4) occ(17,7,11) occ(49,7,7) occ(52,7,1) occ(53,7,9) occ(59,7,6) occ(71,7,10) occ(72,7,3) occ(103,7,2) occ(109,7,5) occ(13,8,12) occ(19,8,9) occ(23,8,11) occ(28,8,2) occ(38,8,5) occ(50,8,3) occ(61,8,8) occ(64,8,6) occ(74,8,1) occ(81,8,10) occ(91,8,7) occ(105,8,4) occ(15,9,10) occ(36,9,3) occ(40,9,7) occ(47,9,8) occ(48,9,5) occ(54,9,2) occ(62,9,4) occ(69,9,9) occ(73,9,11) occ(83,9,12) occ(101,9,1) occ(107,9,6) occ(21,10,10) occ(25,10,12) occ(30,10,1) occ(39,10,3) occ(43,10,5) occ(46,10,7) occ(60,10,2) occ(63,10,9) occ(79,10,11) occ(89,10,8) occ(93,10,6) occ(97,10,4) occ(29,11,9) occ(33,11,5) occ(34,11,4) occ(37,11,1) occ(42,11,8) occ(45,11,7) occ(56,11,3) occ(67,11,10) occ(75,11,12) occ(85,11,11) occ(99,11,2) occ(27,12,11) occ(31,12,7) occ(32,12,2) occ(35,12,3) occ(41,12,4) occ(44,12,6) occ(58,12,1) occ(65,12,8) occ(77,12,10) occ(87,12,9) occ(95,12,5)
Optimization: -127
Answer: 13
occ(1,2,9) occ(1,3,7) occ(1,3,2) occ(1,4,2) occ(1,5,7) occ(1,6,5) occ(1,2,4) occ(2,5,12) occ(3,7,8) coverage(128) occ(6,1,12) occ(20,1,5) occ(88,1,9) occ(94,1,8) occ(98,1,4) occ(108,1,3) occ(112,1,7) occ(120,1,11) occ(126,1,10) occ(8,2,10) occ(82,2,3) occ(86,2,7) occ(90,2,11) occ(96,2,6) occ(100,2,2) occ(106,2,1) occ(110,2,5) occ(124,2,12) occ(4,3,11) occ(18,3,6) occ(22,3,4) occ(80,3,1) occ(84,3,5) occ(92,3,9) occ(104,3,3) occ(114,3,8) occ(118,3,12) occ(122,3,10) occ(7,4,11) occ(10,4,9) occ(16,4,8) occ(68,4,6) occ(78,4,3) occ(102,4,1) occ(115,4,7) occ(116,4,10) occ(119,4,5) occ(125,4,4) occ(9,5,9) occ(12,5,11) occ(24,5,3) occ(51,5,8) occ(55,5,10) occ(70,5,4) occ(113,5,5) occ(123,5,2) occ(127,5,6) occ(5,6,10) occ(11,6,11) occ(14,6,9) occ(26,6,1) occ(57,6,12) occ(66,6,7) occ(76,6,2) occ(111,6,3) occ(117,6,6) occ(121,6,4) occ(17,7,11) occ(49,7,7) occ(52,7,1) occ(53,7,9) occ(59,7,10) occ(72,7,3) occ(103,7,2) occ(109,7,5) occ(13,8,12) occ(19,8,9) occ(23,8,11) occ(28,8,2) occ(38,8,5) occ(50,8,3) occ(61,8,8) occ(64,8,6) occ(74,8,1) occ(81,8,10) occ(91,8,7) occ(105,8,4) occ(15,9,10) occ(36,9,3) occ(40,9,7) occ(47,9,8) occ(48,9,5) occ(54,9,2) occ(62,9,4) occ(73,9,11) occ(77,9,9) occ(83,9,12) occ(101,9,1) occ(107,9,6) occ(21,10,10) occ(25,10,12) occ(30,10,1) occ(39,10,3) occ(42,10,9) occ(43,10,5) occ(60,10,2) occ(63,10,7) occ(79,10,11) occ(89,10,8) occ(93,10,6) occ(97,10,4) occ(29,11,9) occ(33,11,5) occ(34,11,4) occ(37,11,1) occ(45,11,7) occ(46,11,6) occ(56,11,3) occ(67,11,8) occ(71,11,12) occ(75,11,10) occ(85,11,11) occ(99,11,2) occ(27,12,11) occ(31,12,7) occ(32,12,2) occ(35,12,3) occ(41,12,4) occ(44,12,8) occ(58,12,1) occ(65,12,6) occ(69,12,10) occ(87,12,9) occ(95,12,5)
Optimization: -128
Answer: 14
occ(1,2,9) occ(1,3,7) occ(1,3,2) occ(1,4,2) occ(1,5,7) occ(1,6,5) occ(1,2,4) occ(2,5,12) occ(3,7,8) coverage(129) occ(20,1,5) occ(88,1,9) occ(94,1,8) occ(98,1,4) occ(108,1,3) occ(112,1,7) occ(120,1,11) occ(126,1,10) occ(82,2,3) occ(86,2,7) occ(90,2,11) occ(96,2,6) occ(100,2,2) occ(106,2,1) occ(110,2,5) occ(124,2,12) occ(128,2,8) occ(4,3,11) occ(18,3,6) occ(22,3,4) occ(80,3,1) occ(84,3,5) occ(92,3,9) occ(104,3,3) occ(114,3,8) occ(118,3,12) occ(122,3,10) occ(6,4,9) occ(7,4,11) occ(16,4,8) occ(68,4,6) occ(78,4,3) occ(102,4,1) occ(115,4,7) occ(116,4,10) occ(119,4,5) occ(125,4,4) occ(9,5,9) occ(24,5,3) occ(51,5,8) occ(55,5,10) occ(70,5,4) occ(113,5,5) occ(123,5,2) occ(127,5,6) occ(5,6,10) occ(8,6,8) occ(11,6,11) occ(14,6,9) occ(26,6,1) occ(57,6,12) occ(66,6,7) occ(76,6,2) occ(111,6,3) occ(117,6,6) occ(121,6,4) occ(10,7,6) occ(17,7,11) occ(49,7,7) occ(52,7,1) occ(53,7,9) occ(59,7,10) occ(72,7,3) occ(103,7,2) occ(109,7,5) occ(12,8,8) occ(13,8,12) occ(19,8,9) occ(23,8,11) occ(28,8,2) occ(38,8,5) occ(50,8,3) occ(64,8,6) occ(74,8,1) occ(81,8,10) occ(91,8,7) occ(105,8,4) occ(15,9,10) occ(36,9,3) occ(40,9,7) occ(47,9,8) occ(48,9,5) occ(54,9,2) occ(61,9,9) occ(62,9,4) occ(73,9,11) occ(83,9,12) occ(101,9,1) occ(107,9,6) occ(21,10,10) occ(25,10,12) occ(30,10,1) occ(39,10,3) occ(42,10,9) occ(43,10,5) occ(60,10,2) occ(63,10,7) occ(79,10,11) occ(89,10,8) occ(93,10,6) occ(97,10,4) occ(29,11,9) occ(33,11,5) occ(34,11,4) occ(37,11,1) occ(45,11,7) occ(46,11,6) occ(56,11,3) occ(67,11,8) occ(71,11,12) occ(75,11,10) occ(85,11,11) occ(99,11,2) occ(27,12,11) occ(31,12,7) occ(32,12,2) occ(35,12,3) occ(41,12,4) occ(44,12,8) occ(58,12,1) occ(65,12,6) occ(69,12,10) occ(77,12,12) occ(87,12,9) occ(95,12,5)
Optimization: -129
Answer: 15
occ(1,2,9) occ(1,3,7) occ(1,3,2) occ(1,4,2) occ(1,5,7) occ(1,6,5) occ(1,2,4) occ(2,5,12) occ(3,7,8) coverage(131) occ(6,1,12) occ(20,1,5) occ(88,1,9) occ(94,1,8) occ(98,1,4) occ(108,1,3) occ(112,1,7) occ(120,1,11) occ(126,1,10) occ(130,1,6) occ(8,2,10) occ(82,2,3) occ(86,2,7) occ(90,2,11) occ(96,2,6) occ(100,2,2) occ(106,2,1) occ(110,2,5) occ(124,2,12) occ(128,2,8) occ(4,3,11) occ(18,3,6) occ(22,3,4) occ(80,3,1) occ(84,3,5) occ(92,3,9) occ(104,3,3) occ(114,3,8) occ(118,3,12) occ(122,3,10) occ(7,4,11) occ(10,4,9) occ(16,4,8) occ(68,4,6) occ(78,4,3) occ(102,4,1) occ(115,4,7) occ(116,4,10) occ(119,4,5) occ(125,4,4) occ(9,5,9) occ(12,5,11) occ(24,5,3) occ(51,5,8) occ(55,5,10) occ(70,5,4) occ(113,5,5) occ(123,5,2) occ(127,5,6) occ(5,6,10) occ(11,6,11) occ(14,6,9) occ(26,6,1) occ(57,6,12) occ(66,6,7) occ(76,6,2) occ(111,6,3) occ(117,6,6) occ(121,6,4) occ(129,6,8) occ(17,7,11) occ(42,7,6) occ(49,7,7) occ(52,7,1) occ(53,7,9) occ(59,7,10) occ(72,7,3) occ(103,7,2) occ(109,7,5) occ(13,8,12) occ(19,8,9) occ(23,8,11) occ(28,8,2) occ(38,8,5) occ(44,8,8) occ(50,8,3) occ(64,8,6) occ(74,8,1) occ(81,8,10) occ(91,8,7) occ(105,8,4) occ(15,9,10) occ(36,9,3) occ(40,9,7) occ(47,9,8) occ(48,9,5) occ(54,9,2) occ(61,9,9) occ(62,9,4) occ(69,9,11) occ(83,9,12) occ(101,9,1) occ(107,9,6) occ(21,10,10) occ(25,10,12) occ(30,10,1) occ(39,10,3) occ(43,10,5) occ(46,10,7) occ(60,10,2) occ(71,10,9) occ(79,10,11) occ(89,10,8) occ(93,10,6) occ(97,10,4) occ(29,11,9) occ(33,11,5) occ(34,11,4) occ(37,11,1) occ(45,11,7) occ(56,11,3) occ(63,11,8) occ(67,11,12) occ(75,11,10) occ(85,11,11) occ(99,11,2) occ(27,12,11) occ(31,12,7) occ(32,12,2) occ(35,12,3) occ(41,12,4) occ(58,12,1) occ(65,12,10) occ(73,12,8) occ(77,12,12) occ(87,12,9) occ(95,12,5)
Optimization: -131
Answer: 16
occ(1,2,9) occ(1,3,7) occ(1,3,2) occ(1,4,2) occ(1,5,7) occ(1,6,5) occ(1,2,4) occ(2,5,12) occ(3,7,8) coverage(132) occ(6,1,12) occ(20,1,5) occ(88,1,9) occ(94,1,8) occ(98,1,4) occ(108,1,3) occ(112,1,7) occ(120,1,11) occ(126,1,10) occ(130,1,6) occ(8,2,10) occ(82,2,3) occ(86,2,7) occ(90,2,11) occ(96,2,6) occ(100,2,2) occ(106,2,1) occ(110,2,5) occ(124,2,12) occ(128,2,8) occ(4,3,11) occ(18,3,6) occ(22,3,4) occ(80,3,1) occ(84,3,5) occ(92,3,9) occ(104,3,3) occ(114,3,8) occ(118,3,12) occ(122,3,10) occ(7,4,11) occ(10,4,9) occ(16,4,8) occ(68,4,6) occ(78,4,3) occ(102,4,1) occ(115,4,7) occ(116,4,10) occ(119,4,5) occ(125,4,4) occ(9,5,9) occ(12,5,11) occ(24,5,3) occ(51,5,8) occ(55,5,10) occ(70,5,4) occ(113,5,5) occ(123,5,2) occ(127,5,6) occ(5,6,10) occ(11,6,11) occ(14,6,9) occ(26,6,1) occ(57,6,12) occ(66,6,7) occ(76,6,2) occ(111,6,3) occ(117,6,6) occ(121,6,4) occ(129,6,8) occ(17,7,11) occ(49,7,7) occ(52,7,1) occ(53,7,9) occ(59,7,10) occ(72,7,3) occ(103,7,2) occ(109,7,5) occ(131,7,6) occ(13,8,12) occ(19,8,9) occ(23,8,11) occ(28,8,2) occ(38,8,5) occ(50,8,3) occ(61,8,8) occ(64,8,6) occ(74,8,1) occ(81,8,10) occ(91,8,7) occ(105,8,4) occ(15,9,10) occ(36,9,3) occ(40,9,7) occ(47,9,8) occ(48,9,5) occ(54,9,2) occ(62,9,4) occ(69,9,9) occ(73,9,11) occ(83,9,12) occ(101,9,1) occ(107,9,6) occ(21,10,10) occ(25,10,12) occ(30,10,1) occ(39,10,3) occ(42,10,9) occ(43,10,5) occ(60,10,2) occ(63,10,7) occ(79,10,11) occ(89,10,8) occ(93,10,6) occ(97,10,4) occ(29,11,9) occ(33,11,5) occ(34,11,4) occ(37,11,1) occ(45,11,7) occ(46,11,6) occ(56,11,3) occ(67,11,8) occ(71,11,10) occ(75,11,12) occ(85,11,11) occ(99,11,2) occ(27,12,11) occ(31,12,7) occ(32,12,2) occ(35,12,3) occ(41,12,4) occ(44,12,8) occ(58,12,1) occ(65,12,6) occ(77,12,10) occ(87,12,9) occ(95,12,5)
Optimization: -132
Answer: 17
occ(1,2,9) occ(1,3,7) occ(1,3,2) occ(1,4,2) occ(1,5,7) occ(1,6,5) occ(1,2,4) occ(2,5,12) occ(3,7,8) coverage(133) occ(32,1,3) occ(33,1,11) occ(99,1,2) occ(103,1,4) occ(109,1,7) occ(115,1,6) occ(121,1,5) occ(127,1,8) occ(131,1,12) occ(27,2,11) occ(34,2,5) occ(37,2,12) occ(77,2,2) occ(105,2,6) occ(113,2,8) occ(119,2,3) occ(123,2,7) occ(129,2,10) occ(4,3,11) occ(30,3,4) occ(31,3,12) occ(35,3,10) occ(97,3,1) occ(101,3,3) occ(107,3,8) occ(111,3,6) occ(117,3,5) occ(125,3,9) occ(6,4,9) occ(7,4,7) occ(25,4,12) occ(28,4,6) occ(29,4,10) occ(36,4,4) occ(39,4,11) occ(44,4,8) occ(75,4,3) occ(79,4,1) occ(126,4,5) occ(5,5,9) occ(8,5,11) occ(26,5,8) occ(38,5,6) occ(46,5,10) occ(58,5,4) occ(69,5,5) occ(95,5,2) occ(128,5,3) occ(132,5,1) occ(9,6,8) occ(23,6,11) occ(24,6,10) occ(41,6,12) occ(42,6,9) occ(54,6,7) occ(73,6,4) occ(81,6,2) occ(91,6,3) occ(124,6,6) occ(10,7,10) occ(13,7,11) occ(22,7,12) occ(40,7,7) occ(48,7,9) occ(56,7,5) occ(60,7,3) occ(67,7,4) occ(71,7,6) occ(93,7,1) occ(130,7,2) occ(11,8,9) occ(17,8,10) occ(21,8,12) occ(43,8,11) occ(52,8,8) occ(62,8,1) occ(83,8,3) occ(84,8,6) occ(88,8,2) occ(89,8,4) occ(106,8,7) occ(122,8,5) occ(12,9,9) occ(15,9,12) occ(20,9,11) occ(50,9,10) occ(61,9,1) occ(65,9,3) occ(74,9,6) occ(86,9,4) occ(87,9,2) occ(104,9,5) occ(110,9,8) occ(120,9,7) occ(19,10,11) occ(45,10,12) occ(59,10,3) occ(64,10,2) occ(76,10,8) occ(82,10,7) occ(85,10,4) occ(90,10,1) occ(98,10,5) occ(108,10,6) occ(112,10,10) occ(118,10,9) occ(14,11,8) occ(18,11,12) occ(49,11,9) occ(53,11,5) occ(57,11,1) occ(63,11,2) occ(68,11,3) occ(72,11,7) occ(78,11,10) occ(94,11,4) occ(102,11,6) occ(116,11,11) occ(16,12,10) occ(47,12,11) occ(51,12,7) occ(55,12,3) occ(66,12,1) occ(70,12,5) occ(80,12,8) occ(92,12,2) occ(96,12,6) occ(100,12,4) occ(114,12,9)
Optimization: -133
Answer: 18
occ(1,2,9) occ(1,3,7) occ(1,3,2) occ(1,4,2) occ(1,5,7) occ(1,6,5) occ(1,2,4) occ(2,5,12) occ(3,7,8) coverage(134) occ(51,1,4) occ(55,1,8) occ(61,1,9) occ(65,1,5) occ(71,1,2) occ(104,1,7) occ(115,1,12) occ(119,1,10) occ(122,1,6) occ(132,1,3) occ(49,2,2) occ(53,2,6) occ(59,2,11) occ(63,2,7) occ(67,2,3) occ(106,2,5) occ(113,2,10) occ(120,2,8) occ(121,2,12) occ(57,3,9) occ(69,3,1) occ(73,3,3) occ(82,3,10) occ(102,3,8) occ(110,3,6) occ(117,3,11) occ(124,3,5) occ(130,3,4) occ(7,4,5) occ(19,4,3) occ(47,4,1) occ(80,4,12) occ(100,4,10) occ(108,4,4) occ(111,4,9) occ(112,4,8) occ(118,4,7) occ(123,4,11) occ(128,4,6) occ(21,5,1) occ(45,5,3) occ(75,5,2) occ(78,5,10) occ(84,5,11) occ(85,5,5) occ(98,5,8) occ(107,5,6) occ(116,5,9) occ(126,5,4) occ(5,6,6) occ(6,6,9) occ(9,6,4) occ(17,6,2) occ(43,6,1) occ(76,6,12) occ(83,6,3) occ(94,6,11) occ(109,6,8) occ(114,6,7) occ(125,6,10) occ(4,7,11) occ(8,7,7) occ(11,7,6) occ(23,7,2) occ(41,7,3) occ(77,7,1) occ(86,7,12) occ(87,7,4) occ(90,7,10) occ(96,7,9) occ(105,7,5) occ(10,8,5) occ(15,8,3) occ(16,8,2) occ(39,8,1) occ(64,8,10) occ(74,8,11) occ(81,8,4) occ(89,8,6) occ(92,8,12) occ(97,8,8) occ(103,8,7) occ(127,8,9) occ(12,9,3) occ(13,9,5) occ(18,9,4) occ(25,9,1) occ(58,9,10) occ(62,9,12) occ(79,9,2) occ(88,9,11) occ(91,9,8) occ(95,9,6) occ(101,9,9) occ(129,9,7) occ(14,10,1) occ(26,10,3) occ(31,10,5) occ(37,10,2) occ(40,10,10) occ(44,10,8) occ(48,10,4) occ(52,10,6) occ(66,10,11) occ(72,10,12) occ(99,10,7) occ(131,10,9) occ(20,11,5) occ(24,11,1) occ(27,11,2) occ(30,11,4) occ(33,11,3) occ(34,11,8) occ(38,11,12) occ(46,11,6) occ(56,11,9) occ(60,11,11) occ(70,11,10) occ(93,11,7) occ(22,12,3) occ(28,12,2) occ(29,12,4) occ(32,12,6) occ(35,12,1) occ(36,12,10) occ(42,12,9) occ(50,12,5) occ(54,12,7) occ(68,12,12) occ(133,12,8)
Optimization: -134
Answer: 19
occ(1,2,9) occ(1,3,7) occ(1,3,2) occ(1,4,2) occ(1,5,7) occ(1,6,5) occ(1,2,4) occ(2,5,12) occ(3,7,8) coverage(135) occ(51,1,4) occ(55,1,8) occ(61,1,9) occ(65,1,5) occ(71,1,2) occ(104,1,7) occ(115,1,12) occ(119,1,10) occ(122,1,6) occ(132,1,3) occ(49,2,2) occ(53,2,6) occ(59,2,11) occ(63,2,7) occ(67,2,3) occ(106,2,5) occ(113,2,10) occ(120,2,8) occ(121,2,12) occ(134,2,1) occ(57,3,9) occ(69,3,1) occ(73,3,3) occ(82,3,10) occ(102,3,8) occ(110,3,6) occ(117,3,11) occ(124,3,5) occ(130,3,4) occ(7,4,5) occ(19,4,3) occ(47,4,1) occ(80,4,12) occ(100,4,10) occ(108,4,4) occ(111,4,9) occ(112,4,8) occ(118,4,7) occ(123,4,11) occ(128,4,6) occ(21,5,1) occ(45,5,3) occ(75,5,2) occ(78,5,10) occ(84,5,11) occ(85,5,5) occ(98,5,8) occ(107,5,6) occ(116,5,9) occ(126,5,4) occ(5,6,6) occ(6,6,9) occ(9,6,4) occ(17,6,2) occ(43,6,1) occ(76,6,12) occ(83,6,3) occ(94,6,11) occ(109,6,8) occ(114,6,7) occ(125,6,10) occ(4,7,11) occ(8,7,7) occ(11,7,6) occ(23,7,2) occ(41,7,3) occ(77,7,1) occ(86,7,12) occ(87,7,4) occ(90,7,10) occ(96,7,9) occ(105,7,5) occ(10,8,5) occ(15,8,3) occ(16,8,2) occ(39,8,1) occ(64,8,10) occ(74,8,11) occ(81,8,4) occ(89,8,6) occ(92,8,12) occ(97,8,8) occ(103,8,7) occ(127,8,9) occ(12,9,3) occ(13,9,5) occ(18,9,4) occ(25,9,1) occ(58,9,10) occ(62,9,12) occ(79,9,2) occ(88,9,11) occ(91,9,8) occ(95,9,6) occ(101,9,9) occ(129,9,7) occ(14,10,1) occ(26,10,3) occ(31,10,5) occ(37,10,2) occ(40,10,10) occ(44,10,8) occ(48,10,4) occ(52,10,6) occ(66,10,11) occ(72,10,12) occ(99,10,7) occ(131,10,9) occ(20,11,5) occ(24,11,1) occ(27,11,2) occ(30,11,4) occ(33,11,3) occ(34,11,8) occ(38,11,12) occ(46,11,6) occ(56,11,9) occ(60,11,11) occ(70,11,10) occ(93,11,7) occ(22,12,3) occ(28,12,2) occ(29,12,4) occ(32,12,6) occ(35,12,1) occ(36,12,10) occ(42,12,9) occ(50,12,5) occ(54,12,7) occ(68,12,12) occ(133,12,8)
Optimization: -135
*** Info : (clingo): INTERRUPTED by signal!
SATISFIABLE

TIME LIMIT   : 1
Models       : 19+
  Optimum    : unknown
Optimization : -135
Calls        : 1
Time         : 300.000s (Solving: 294.95s 1st Model: 0.01s Unsat: 0.00s)
CPU Time     : 300.002s
